(set-option :print-success true)
(set-option :produce-assignments true)
(set-option :produce-abducts true)
(set-option :incremental true)
(set-logic QF_UFLIA)
(set-option :sygus-core-connective false)
(declare-fun k1 () Int)
(declare-fun l1 () Int)
(declare-fun k2 () Int)
(declare-fun v () Int)
(declare-fun l2 () Int)
(declare-fun c2 () Int)
(declare-fun mul (Int Int ) Int)
(declare-fun c1 () Int)
(assert (= (mul v (+ (mul c1 k1) (mul c2 k2))) (+ (mul v (mul c1 k1)) (mul v (mul c2 k2)))))
(assert (= (+ (mul v (mul c1 k1)) (mul v (mul c2 k2))) (+ (mul (mul v c1) k1) (mul (mul v c2) k2))))
(get-abduct A (= (+ (mul (+ (mul v c1) l1) k1) (mul (+ (mul v c2) l2) k2)) (+ (mul v (+ (mul c1 k1) (mul c2 k2))) (+ (mul l1 k1) (mul l2 k2)))))

